num_atoms,user_label,total_energy,inferred_total_energy,stress_xx,stress_yy,stress_zz,stress_xy,stress_yz,stress_zx,inferred_stress_xx,inferred_stress_yy,inferred_stress_zz,inferred_stress_xy,inferred_stress_yz,inferred_stress_zx,cell_lattice_vectors_a,cell_lattice_vectors_b,cell_lattice_vectors_c
96,-,-2759.1155,-954.30334,77.70829,12.0443,62.22823,2.52352,9.283931,66.48603,174.14784,121.10175,151.18304,4.445435,9.308663,60.064407,[10.129786  0.        0.      ],[  1.730355   0.       -10.371119],[ 0.       10.263143  0.      ]
